RT is False
Default write of storage_offers_DA.csv just to have a file (but constraint should be inactive)
Reading model...
...model read.
creating competitive generators file...
...competitive generators recorded.
Loading data...
.. day-ahead data with real-time VRE data read.
Compiling instance...
...instance created.
Creating Offer Mitigation (model will solve as dispatch if TRUE)...
NOTE: storage offers will not be mitigated
...storage offer mitigation file created
Converting model to MPEC...
...converted
NOTE: initial MIP solve with only storage competitive to get feasible solution
Solving...

Welcome to IBM(R) ILOG(R) CPLEX(R) Interactive Optimizer 12.9.0.0
  with Simplex, Mixed Integer & Barrier Optimizers
5725-A06 5725-A29 5724-Y48 5724-Y49 5724-Y54 5724-Y55 5655-Y21
Copyright IBM Corp. 1988, 2019.  All Rights Reserved.

Type 'help' for a list of available commands.
Type 'help' followed by a command name for more
information on commands.

CPLEX> Logfile 'cplex.log' closed.
Logfile 'C:\Users\Luke\Desktop\test106\logs\tmpaxz6y3b1.cplex.log' open.
CPLEX> New value for parallel optimization mode: -1
CPLEX> New value for mixed integer optimality gap tolerance: 0.01
CPLEX> New value for integrality tolerance: 1e-09
CPLEX> New value for feasibility tolerance: 0.1
CPLEX> New value for deterministic time limit in ticks: 100000
CPLEX> Problem 'C:\Users\Luke\Desktop\test106\logs\tmphkvn0q__.pyomo.lp' read.
Read time = 0.19 sec. (13.86 ticks)
CPLEX> Problem name         : C:\Users\Luke\Desktop\test106\logs\tmphkvn0q__.pyomo.lp
Objective sense      : Maximize
Variables            :   53321  [Nneg: 1,  Box: 21806,  Free: 4416,
                                 Binary: 27098]
Objective nonzeros   :    8980
Linear constraints   :  122164  [Less: 40983,  Greater: 58612,  Equal: 22569]
  Nonzeros           :  288505
  RHS nonzeros       :   66982

Variables            : Min LB: -5000.000        Max UB: 1000000.       
Objective nonzeros   : Min   : 0.07500000       Max   : 816.0833       
Linear constraints   :
  Nonzeros           : Min   : 0.07500000       Max   : 2910000.       
  RHS nonzeros       : Min   : 0.07500000       Max   : 3000000.       
CPLEX> CPXPARAM_Parallel                                -1
CPXPARAM_Simplex_Tolerances_Feasibility          0.10000000000000001
CPXPARAM_DetTimeLimit                            100000
CPXPARAM_MIP_Tolerances_MIPGap                   0.01
CPXPARAM_MIP_Tolerances_Integrality              1.0000000000000001e-09
Tried aggregator 3 times.
MIP Presolve eliminated 88087 rows and 18943 columns.
MIP Presolve added 3374 rows and 0 columns.
MIP Presolve modified 23419 coefficients.
Aggregator did 12866 substitutions.
Reduced MIP has 24585 rows, 20956 columns, and 68880 nonzeros.
Reduced MIP has 8289 binaries, 0 generals, 0 SOSs, and 0 indicators.
Presolve time = 0.23 sec. (173.03 ticks)
Probing fixed 430 vars, tightened 2902 bounds.
Probing time = 1.75 sec. (898.89 ticks)
Tried aggregator 2 times.
MIP Presolve eliminated 959 rows and 861 columns.
MIP Presolve modified 2190 coefficients.
Aggregator did 54 substitutions.
Reduced MIP has 23572 rows, 20041 columns, and 65934 nonzeros.
Reduced MIP has 7859 binaries, 0 generals, 0 SOSs, and 0 indicators.
Presolve time = 0.09 sec. (66.10 ticks)
Probing time = 0.03 sec. (16.01 ticks)
Clique table members: 6228.
MIP emphasis: balance optimality and feasibility.
MIP search method: dynamic search.
Parallel mode: opportunistic, using up to 12 threads.
Root relaxation solution time = 0.31 sec. (248.19 ticks)

        Nodes                                         Cuts/
   Node  Left     Objective  IInf  Best Integer    Best Bound    ItCnt     Gap

      0     0    23838.0461  1705                  23838.0461     4059         
      0     0    23818.1908    93                    Cuts: 87     4081         
      0     0    23817.6256    90                   Cuts: 200     4090         
      0     0    23817.6256    90                   Cuts: 170     4090         
      0     2    23841.2561    45                     Cuts: 4     4090         
Elapsed time = 12.03 sec. (5452.07 ticks, tree = 0.02 MB, solutions = 0)
    149    96    -8919.9677    17                  23817.6256     4721         
    451   256    23815.5125    24                  23817.6256     5750         
    634   459   -13595.8139    10                  23817.6256     6304         
    712   542    23820.5207    12                  23817.6256     6475         
    769   585    infeasible                        23817.6256     6616         
    813   597    23816.2822     9                  23817.6256     6638         
    859   612   -48169.7344     9                  23817.6256     6875         
    903   616    infeasible                        23817.6256     6878         
    978   638    23832.4703    16                  23817.6256     7764         
   1132   725    infeasible                        23817.6256     9416         
Elapsed time = 17.91 sec. (8588.86 ticks, tree = 3.94 MB, solutions = 0)
   1266   728   -73460.4032     6                  23817.6256     9420         
   1438   763  -105148.6754     8                  23817.6256     9920         
   1612   909   -33769.2413     8                  23817.6256    12898         
   1743   890   -37321.3393     5                  23817.6256    12513         
   1846   961   -48171.5303     2                  23817.6256    13295         
   1923  1040    infeasible                        23817.6256    15737         
   1999  1070    infeasible                        23817.6256    15942         
   2071  1063   -64746.4829     2                  23817.6256    15887         
   2139  1083   -35091.7830     2                  23817.6256    16029         
   2204  1095    infeasible                        23817.6256    16146         
Elapsed time = 31.36 sec. (18263.55 ticks, tree = 6.93 MB, solutions = 0)
   2258  1102    infeasible                        23817.6256    16200         
   2319  1094    infeasible                        23817.6256    16133         
   2368  1097   -37321.9913     2                  23817.6256    16150         
   2419  1107    infeasible                        23817.6256    16228         
   2472  1125    22907.1000     2                  23817.6256    16347         
   2527  1125   -35091.7830     2                  23817.6256    16332         
   2576  1125   -35091.7830     2                  23817.6256    16335         
   2623  1136    infeasible                        23817.6256    16492         
   2666  1137    infeasible                        23817.6256    16496         
   2708  1137    infeasible                        23817.6256    16540         
Elapsed time = 43.58 sec. (27934.01 ticks, tree = 7.24 MB, solutions = 0)
   2751  1130   -37321.9913     3                  23817.6256    16425         
   2799  1130   -37321.9913     3                  23817.6256    16427         
   2844  1139  -112945.4764     2                  23817.6256    16551         
   2885  1139  -112945.4764     2                  23817.6256    16552         
   2928  1158   -64746.4829     3                  23817.6256    16881         
   2967  1158   -66907.7391     2                  23817.6256    16853         
   3004  1158   -66907.7391     2                  23817.6256    16854         
   3044  1163    infeasible                        23817.6256    17075         
   3081  1163    infeasible                        23817.6256    17068         
   3112  1159    infeasible                        23817.6256    16955         
Elapsed time = 55.98 sec. (37911.64 ticks, tree = 7.44 MB, solutions = 0)
   3143  1165    22907.1000     2                  23817.6256    17094         
   3177  1165   -64746.4829     3                  23817.6256    17122         
   3219  1165   -66907.7391     2                  23817.6256    17075         
   3257  1166   -64746.4829     3                  23817.6256    17152         
   3285  1164    infeasible                        23817.6256    17185         
   3308  1165   -37321.9913     3                  23817.6256    17136         
   3341  1168   -66907.7391     2                  23817.6256    17298         
   3374  1168    infeasible                        23817.6256    17302         
   3410  1171   -44390.2331     4                  23817.6256    17384         
   3438  1167    infeasible                        23817.6256    17303         
Elapsed time = 69.33 sec. (47843.19 ticks, tree = 7.42 MB, solutions = 0)
   3474  1167  -112945.4764     2                  23817.6256    17229         
   3506  1170    infeasible                        23817.6256    17388         
   3523  1175    infeasible                        23817.6256    17509         
   3552  1171  -129699.1772     3                  23817.6256    17377         
   3584  1175   -64746.4829     3                  23817.6256    17494         
   3609  1173   -21210.2885     3                  23817.6256    17439         
   3634  1177    22907.1000     2                  23817.6256    17519         
   3663  1173  -129699.1772     3                  23817.6256    17436         
   3682  1178   -48171.5303     3                  23817.6256    17538         
   3708  1176    infeasible                        23817.6256    17522         
Elapsed time = 84.03 sec. (57793.63 ticks, tree = 7.48 MB, solutions = 0)
   3736  1177  -129699.1772     3                  23817.6256    17515         
   3755  1185    infeasible                        23817.6256    17661         
   3784  1189    infeasible                        23817.6256    17735         
   3809  1181   -64746.4829     3                  23817.6256    17617         
   3829  1179   -37321.9913     3                  23817.6256    17598         
   3858  1190   -35091.7830     2                  23817.6256    17715         
   3878  1184    infeasible                        23817.6256    17650         
   3900  1179   -37321.9913     3                  23817.6256    17601         
   3930  1191    22907.1000     2                  23817.6256    17741         
   3956  1191    infeasible                        23817.6256    17789         
Elapsed time = 99.02 sec. (67835.97 ticks, tree = 7.54 MB, solutions = 0)
   3981  1196   -35091.7830     2                  23817.6256    17869         
   4010  1193    infeasible                        23817.6256    17843         
   4030  1194   -48171.5303     3                  23817.6256    17808         
   4065  1196    infeasible                        23817.6256    17898         
   4081  1191    infeasible                        23817.6256    17814         
   4108  1196   -35091.7830     2                  23817.6256    17875         
   4138  1193  -112945.4764     2                  23817.6256    17832         
   4157  1200    infeasible                        23817.6256    17941         
   4188  1193   -66907.7391     2                  23817.6256    17860         
   4206  1195   -37321.9913     3                  23817.6256    17859         
Elapsed time = 116.50 sec. (78148.26 ticks, tree = 7.57 MB, solutions = 0)
   4233  1202   -66907.7391     2                  23817.6256    18013         
   4250  1195    infeasible                        23817.6256    17884         
   4279  1202   -66907.7391     2                  23817.6256    18015         
   4300  1196   -37321.9913     3                  23817.6256    17887         
   4325  1202   -66907.7391     2                  23817.6256    18017         
   4347  1200    infeasible                        23817.6256    17943         
   4362  1202   -66907.7391     2                  23817.6256    18018         
   4386  1201   -21210.2885     3                  23817.6256    17983         
   4401  1201    infeasible                        23817.6256    18019         
   4432  1201    infeasible                        23817.6256    18016         
Elapsed time = 132.75 sec. (87919.51 ticks, tree = 7.63 MB, solutions = 0)
   4442  1202   -66907.7391     2                  23817.6256    18021         
   4473  1202   -37321.9913     3                  23817.6256    18018         
   4481  1204   -66907.7391     2                  23817.6256    18156         
   4514  1201    infeasible                        23817.6256    18069         
   4520  1204   -66907.7391     2                  23817.6256    18158         
   4553  1203    22907.1000     2                  23817.6256    18110         
   4557  1204   -66907.7391     2                  23817.6256    18160         
   4580  1203   -66669.5030     2                  23817.6256    18099         
   4584  1203    infeasible                        23817.6256    18161         
   4615  1205   -48171.5303     3                  23817.6256    18150         
Elapsed time = 143.88 sec. (101365.86 ticks, tree = 7.58 MB, solutions = 0)

Implied bound cuts applied:  6
Flow cuts applied:  49
Gomory fractional cuts applied:  15

Root node processing (before b&c):
  Real time             =   11.52 sec. (5427.02 ticks)
Parallel b&c, 12 threads:
  Real time             =  132.47 sec. (96087.79 ticks)
  Sync time (average)   =    0.10 sec.
  Wait time (average)   =    0.00 sec.
                          ------------
Total (root+branch&cut) =  143.98 sec. (101514.81 ticks)


MIP - Deterministic time limit exceeded, no integer solution.
Current MIP best bound =  2.3817625638e+04 (gap is infinite)
Solution time =  143.98 sec.  Iterations = 18252  Nodes = 4618 (1210)
Deterministic time = 101514.96 ticks  (705.04 ticks/sec)

CPLEX> CPLEX Error  1217: No solution exists.
No file written.
CPLEX> gap is infinite, so writing 0
NOTE: no warmstart specified for MIP iteration, default behavior is true
NOTE: resolving with all competitive generators using storage-only solution to warmstart
Solving...

Welcome to IBM(R) ILOG(R) CPLEX(R) Interactive Optimizer 12.9.0.0
  with Simplex, Mixed Integer & Barrier Optimizers
5725-A06 5725-A29 5724-Y48 5724-Y49 5724-Y54 5724-Y55 5655-Y21
Copyright IBM Corp. 1988, 2019.  All Rights Reserved.

Type 'help' for a list of available commands.
Type 'help' followed by a command name for more
information on commands.

CPLEX> Logfile 'cplex.log' closed.
Logfile 'C:\Users\Luke\Desktop\test106\logs\tmpa9ozhltj.cplex.log' open.
CPLEX> New value for parallel optimization mode: -1
CPLEX> New value for mixed integer optimality gap tolerance: 0.01
CPLEX> New value for integrality tolerance: 1e-09
CPLEX> New value for feasibility tolerance: 0.1
CPLEX> New value for deterministic time limit in ticks: 100000
CPLEX> Problem 'C:\Users\Luke\Desktop\test106\logs\tmpvcj350jd.pyomo.lp' read.
Read time = 0.19 sec. (13.88 ticks)
CPLEX> MIP start file 'C:\Users\Luke\Desktop\test106\logs\tmpbjce94wl.cplex.mst' read.
CPLEX> Problem name         : C:\Users\Luke\Desktop\test106\logs\tmpvcj350jd.pyomo.lp
Objective sense      : Maximize
Variables            :   54041  [Nneg: 1,  Box: 22526,  Free: 4416,
                                 Binary: 27098]
Objective nonzeros   :    9676
Linear constraints   :  122164  [Less: 40983,  Greater: 58612,  Equal: 22569]
  Nonzeros           :  288505
  RHS nonzeros       :   66982

Variables            : Min LB: -5000.000        Max UB: 1000000.       
Objective nonzeros   : Min   : 0.07500000       Max   : 780.8000       
Linear constraints   :
  Nonzeros           : Min   : 0.07500000       Max   : 2910000.       
  RHS nonzeros       : Min   : 0.07500000       Max   : 3000000.       
CPLEX> CPXPARAM_Parallel                                -1
CPXPARAM_Simplex_Tolerances_Feasibility          0.10000000000000001
CPXPARAM_DetTimeLimit                            100000
CPXPARAM_MIP_Tolerances_MIPGap                   0.01
CPXPARAM_MIP_Tolerances_Integrality              1.0000000000000001e-09
Warning:  No solution found from 1 MIP starts.
Retaining values of one MIP start for possible repair.
Tried aggregator 3 times.
MIP Presolve eliminated 88087 rows and 19663 columns.
MIP Presolve added 3374 rows and 0 columns.
MIP Presolve modified 23419 coefficients.
Aggregator did 12866 substitutions.
Reduced MIP has 24585 rows, 20956 columns, and 68880 nonzeros.
Reduced MIP has 8289 binaries, 0 generals, 0 SOSs, and 0 indicators.
Presolve time = 0.23 sec. (173.39 ticks)
Probing fixed 430 vars, tightened 2902 bounds.
Probing time = 1.55 sec. (898.89 ticks)
Tried aggregator 2 times.
MIP Presolve eliminated 959 rows and 861 columns.
MIP Presolve modified 2190 coefficients.
Aggregator did 54 substitutions.
Reduced MIP has 23572 rows, 20041 columns, and 65934 nonzeros.
Reduced MIP has 7859 binaries, 0 generals, 0 SOSs, and 0 indicators.
Presolve time = 0.08 sec. (66.10 ticks)
Probing time = 0.05 sec. (16.01 ticks)
Clique table members: 6228.
MIP emphasis: balance optimality and feasibility.
MIP search method: dynamic search.
Parallel mode: opportunistic, using up to 12 threads.
Root relaxation solution time = 0.33 sec. (243.73 ticks)

        Nodes                                         Cuts/
   Node  Left     Objective  IInf  Best Integer    Best Bound    ItCnt     Gap

      0     0    94379.7703  1768                  94379.7703     4004         
      0     0    94274.7801   840                  Cuts: 1138     4423         
      0     0    94274.2085   691                   Cuts: 869     4650         
      0     0    94272.6285   616                   Cuts: 633     4773         
      0     0    94272.4380   580                   Cuts: 326     4820         
      0     0    94272.4380   561                   Cuts: 172     4846         
      0     0    94272.4380   557                   Cuts: 134     4862         
      0     0    94256.1520   121                     Cuts: 5     4862         
Repair heuristic found nothing.
      0     2    94256.1520   121                  94256.1520     4862         
Elapsed time = 13.53 sec. (6324.33 ticks, tree = 0.02 MB, solutions = 0)
    156   102    93651.3335    97                  94252.6654     5149         
    417   316    89259.9315    92                  94250.3772     6179         
    670   536    89237.0639    80                  94250.3772     8120         
   1066   909    88146.2307    56                  94250.3772     8628         
*  1452  1211      integral     0    86989.4782    94250.3772     8826    8.35%
*  1485  1108      integral     0    89014.2895    94250.3772     8812    5.88%
   1752   359    94242.5350   103    89014.2895    94250.3772     9024    5.88%
   2152   475    94235.9117    84    89014.2895    94250.3772    10257    5.88%
   2638  1134    94235.7319    58    89014.2895    94250.3772    10862    5.88%
   3412  1616        cutoff          89014.2895    94250.3772    12264    5.88%
Elapsed time = 24.17 sec. (9184.23 ticks, tree = 10.96 MB, solutions = 3)
   3611  1775        cutoff          89014.2895    94250.3772    12980    5.88%
   3742  1781        cutoff          89014.2895    94250.3772    13017    5.88%
   3793  1812        cutoff          89014.2895    90132.5756    20478    1.26%

GUB cover cuts applied:  4
Clique cuts applied:  71
Cover cuts applied:  22
Implied bound cuts applied:  177
Flow cuts applied:  975
Mixed integer rounding cuts applied:  325
Gomory fractional cuts applied:  140

Root node processing (before b&c):
  Real time             =   12.94 sec. (6281.45 ticks)
Parallel b&c, 12 threads:
  Real time             =   26.13 sec. (11915.96 ticks)
  Sync time (average)   =    1.15 sec.
  Wait time (average)   =    0.02 sec.
                          ------------
Total (root+branch&cut) =   39.06 sec. (18197.40 ticks)

Solution pool: 3 solutions saved.

MIP - Integer optimal, tolerance (0.01/1e-06):  Objective =  8.9014289503e+04
Current MIP best bound =  8.9883066622e+04 (gap = 868.777, 0.98%)
Solution time =   39.06 sec.  Iterations = 20478  Nodes = 3800 (404)
Deterministic time = 18197.56 ticks  (465.86 ticks/sec)

CPLEX> Incumbent solution written to file 'C:\Users\Luke\Desktop\test106\logs\tmpp4xyeinp.cplex.sol'.
CPLEX> Exporting results... 
